g3 1 1 0	# problem biggsb1
 1000 0 1 0 0	# vars, constraints, objectives, ranges, eqns
 0 1	# nonlinear constraints, objectives
 0 0	# network constraints: nonlinear, linear
 0 1000 0	# nonlinear vars in constraints, objectives, both
 0 0 0 1	# linear network variables; functions; arith, flags
 0 0 0 0 0	# discrete variables: binary, integer, nonlinear (b,c,o)
 0 1000	# nonzeros in Jacobian, gradients
 0 0	# max name lengths: constraints, variables
 0 0 0 0 0	# common exprs: b,c,o,c1,o1
b
0 0 0.9
0 0 0.9
0 0 0.9
0 0 0.9
0 0 0.9
0 0 0.9
0 0 0.9
0 0 0.9
0 0 0.9
0 0 0.9
0 0 0.9
0 0 0.9
0 0 0.9
0 0 0.9
0 0 0.9
0 0 0.9
0 0 0.9
0 0 0.9
0 0 0.9
0 0 0.9
0 0 0.9
0 0 0.9
0 0 0.9
0 0 0.9
0 0 0.9
0 0 0.9
0 0 0.9
0 0 0.9
0 0 0.9
0 0 0.9
0 0 0.9
0 0 0.9
0 0 0.9
0 0 0.9
0 0 0.9
0 0 0.9
0 0 0.9
0 0 0.9
0 0 0.9
0 0 0.9
0 0 0.9
0 0 0.9
0 0 0.9
0 0 0.9
0 0 0.9
0 0 0.9
0 0 0.9
0 0 0.9
0 0 0.9
0 0 0.9
0 0 0.9
0 0 0.9
0 0 0.9
0 0 0.9
0 0 0.9
0 0 0.9
0 0 0.9
0 0 0.9
0 0 0.9
0 0 0.9
0 0 0.9
0 0 0.9
0 0 0.9
0 0 0.9
0 0 0.9
0 0 0.9
0 0 0.9
0 0 0.9
0 0 0.9
0 0 0.9
0 0 0.9
0 0 0.9
0 0 0.9
0 0 0.9
0 0 0.9
0 0 0.9
0 0 0.9
0 0 0.9
0 0 0.9
0 0 0.9
0 0 0.9
0 0 0.9
0 0 0.9
0 0 0.9
0 0 0.9
0 0 0.9
0 0 0.9
0 0 0.9
0 0 0.9
0 0 0.9
0 0 0.9
0 0 0.9
0 0 0.9
0 0 0.9
0 0 0.9
0 0 0.9
0 0 0.9
0 0 0.9
0 0 0.9
0 0 0.9
0 0 0.9
0 0 0.9
0 0 0.9
0 0 0.9
0 0 0.9
0 0 0.9
0 0 0.9
0 0 0.9
0 0 0.9
0 0 0.9
0 0 0.9
0 0 0.9
0 0 0.9
0 0 0.9
0 0 0.9
0 0 0.9
0 0 0.9
0 0 0.9
0 0 0.9
0 0 0.9
0 0 0.9
0 0 0.9
0 0 0.9
0 0 0.9
0 0 0.9
0 0 0.9
0 0 0.9
0 0 0.9
0 0 0.9
0 0 0.9
0 0 0.9
0 0 0.9
0 0 0.9
0 0 0.9
0 0 0.9
0 0 0.9
0 0 0.9
0 0 0.9
0 0 0.9
0 0 0.9
0 0 0.9
0 0 0.9
0 0 0.9
0 0 0.9
0 0 0.9
0 0 0.9
0 0 0.9
0 0 0.9
0 0 0.9
0 0 0.9
0 0 0.9
0 0 0.9
0 0 0.9
0 0 0.9
0 0 0.9
0 0 0.9
0 0 0.9
0 0 0.9
0 0 0.9
0 0 0.9
0 0 0.9
0 0 0.9
0 0 0.9
0 0 0.9
0 0 0.9
0 0 0.9
0 0 0.9
0 0 0.9
0 0 0.9
0 0 0.9
0 0 0.9
0 0 0.9
0 0 0.9
0 0 0.9
0 0 0.9
0 0 0.9
0 0 0.9
0 0 0.9
0 0 0.9
0 0 0.9
0 0 0.9
0 0 0.9
0 0 0.9
0 0 0.9
0 0 0.9
0 0 0.9
0 0 0.9
0 0 0.9
0 0 0.9
0 0 0.9
0 0 0.9
0 0 0.9
0 0 0.9
0 0 0.9
0 0 0.9
0 0 0.9
0 0 0.9
0 0 0.9
0 0 0.9
0 0 0.9
0 0 0.9
0 0 0.9
0 0 0.9
0 0 0.9
0 0 0.9
0 0 0.9
0 0 0.9
0 0 0.9
0 0 0.9
0 0 0.9
0 0 0.9
0 0 0.9
0 0 0.9
0 0 0.9
0 0 0.9
0 0 0.9
0 0 0.9
0 0 0.9
0 0 0.9
0 0 0.9
0 0 0.9
0 0 0.9
0 0 0.9
0 0 0.9
0 0 0.9
0 0 0.9
0 0 0.9
0 0 0.9
0 0 0.9
0 0 0.9
0 0 0.9
0 0 0.9
0 0 0.9
0 0 0.9
0 0 0.9
0 0 0.9
0 0 0.9
0 0 0.9
0 0 0.9
0 0 0.9
0 0 0.9
0 0 0.9
0 0 0.9
0 0 0.9
0 0 0.9
0 0 0.9
0 0 0.9
0 0 0.9
0 0 0.9
0 0 0.9
0 0 0.9
0 0 0.9
0 0 0.9
0 0 0.9
0 0 0.9
0 0 0.9
0 0 0.9
0 0 0.9
0 0 0.9
0 0 0.9
0 0 0.9
0 0 0.9
0 0 0.9
0 0 0.9
0 0 0.9
0 0 0.9
0 0 0.9
0 0 0.9
0 0 0.9
0 0 0.9
0 0 0.9
0 0 0.9
0 0 0.9
0 0 0.9
0 0 0.9
0 0 0.9
0 0 0.9
0 0 0.9
0 0 0.9
0 0 0.9
0 0 0.9
0 0 0.9
0 0 0.9
0 0 0.9
0 0 0.9
0 0 0.9
0 0 0.9
0 0 0.9
0 0 0.9
0 0 0.9
0 0 0.9
0 0 0.9
0 0 0.9
0 0 0.9
0 0 0.9
0 0 0.9
0 0 0.9
0 0 0.9
0 0 0.9
0 0 0.9
0 0 0.9
0 0 0.9
0 0 0.9
0 0 0.9
0 0 0.9
0 0 0.9
0 0 0.9
0 0 0.9
0 0 0.9
0 0 0.9
0 0 0.9
0 0 0.9
0 0 0.9
0 0 0.9
0 0 0.9
0 0 0.9
0 0 0.9
0 0 0.9
0 0 0.9
0 0 0.9
0 0 0.9
0 0 0.9
0 0 0.9
0 0 0.9
0 0 0.9
0 0 0.9
0 0 0.9
0 0 0.9
0 0 0.9
0 0 0.9
0 0 0.9
0 0 0.9
0 0 0.9
0 0 0.9
0 0 0.9
0 0 0.9
0 0 0.9
0 0 0.9
0 0 0.9
0 0 0.9
0 0 0.9
0 0 0.9
0 0 0.9
0 0 0.9
0 0 0.9
0 0 0.9
0 0 0.9
0 0 0.9
0 0 0.9
0 0 0.9
0 0 0.9
0 0 0.9
0 0 0.9
0 0 0.9
0 0 0.9
0 0 0.9
0 0 0.9
0 0 0.9
0 0 0.9
0 0 0.9
0 0 0.9
0 0 0.9
0 0 0.9
0 0 0.9
0 0 0.9
0 0 0.9
0 0 0.9
0 0 0.9
0 0 0.9
0 0 0.9
0 0 0.9
0 0 0.9
0 0 0.9
0 0 0.9
0 0 0.9
0 0 0.9
0 0 0.9
0 0 0.9
0 0 0.9
0 0 0.9
0 0 0.9
0 0 0.9
0 0 0.9
0 0 0.9
0 0 0.9
0 0 0.9
0 0 0.9
0 0 0.9
0 0 0.9
0 0 0.9
0 0 0.9
0 0 0.9
0 0 0.9
0 0 0.9
0 0 0.9
0 0 0.9
0 0 0.9
0 0 0.9
0 0 0.9
0 0 0.9
0 0 0.9
0 0 0.9
0 0 0.9
0 0 0.9
0 0 0.9
0 0 0.9
0 0 0.9
0 0 0.9
0 0 0.9
0 0 0.9
0 0 0.9
0 0 0.9
0 0 0.9
0 0 0.9
0 0 0.9
0 0 0.9
0 0 0.9
0 0 0.9
0 0 0.9
0 0 0.9
0 0 0.9
0 0 0.9
0 0 0.9
0 0 0.9
0 0 0.9
0 0 0.9
0 0 0.9
0 0 0.9
0 0 0.9
0 0 0.9
0 0 0.9
0 0 0.9
0 0 0.9
0 0 0.9
0 0 0.9
0 0 0.9
0 0 0.9
0 0 0.9
0 0 0.9
0 0 0.9
0 0 0.9
0 0 0.9
0 0 0.9
0 0 0.9
0 0 0.9
0 0 0.9
0 0 0.9
0 0 0.9
0 0 0.9
0 0 0.9
0 0 0.9
0 0 0.9
0 0 0.9
0 0 0.9
0 0 0.9
0 0 0.9
0 0 0.9
0 0 0.9
0 0 0.9
0 0 0.9
0 0 0.9
0 0 0.9
0 0 0.9
0 0 0.9
0 0 0.9
0 0 0.9
0 0 0.9
0 0 0.9
0 0 0.9
0 0 0.9
0 0 0.9
0 0 0.9
0 0 0.9
0 0 0.9
0 0 0.9
0 0 0.9
0 0 0.9
0 0 0.9
0 0 0.9
0 0 0.9
0 0 0.9
0 0 0.9
0 0 0.9
0 0 0.9
0 0 0.9
0 0 0.9
0 0 0.9
0 0 0.9
0 0 0.9
0 0 0.9
0 0 0.9
0 0 0.9
0 0 0.9
0 0 0.9
0 0 0.9
0 0 0.9
0 0 0.9
0 0 0.9
0 0 0.9
0 0 0.9
0 0 0.9
0 0 0.9
0 0 0.9
0 0 0.9
0 0 0.9
0 0 0.9
0 0 0.9
0 0 0.9
0 0 0.9
0 0 0.9
0 0 0.9
0 0 0.9
0 0 0.9
0 0 0.9
0 0 0.9
0 0 0.9
0 0 0.9
0 0 0.9
0 0 0.9
0 0 0.9
0 0 0.9
0 0 0.9
0 0 0.9
0 0 0.9
0 0 0.9
0 0 0.9
0 0 0.9
0 0 0.9
0 0 0.9
0 0 0.9
0 0 0.9
0 0 0.9
0 0 0.9
0 0 0.9
0 0 0.9
0 0 0.9
0 0 0.9
0 0 0.9
0 0 0.9
0 0 0.9
0 0 0.9
0 0 0.9
0 0 0.9
0 0 0.9
0 0 0.9
0 0 0.9
0 0 0.9
0 0 0.9
0 0 0.9
0 0 0.9
0 0 0.9
0 0 0.9
0 0 0.9
0 0 0.9
0 0 0.9
0 0 0.9
0 0 0.9
0 0 0.9
0 0 0.9
0 0 0.9
0 0 0.9
0 0 0.9
0 0 0.9
0 0 0.9
0 0 0.9
0 0 0.9
0 0 0.9
0 0 0.9
0 0 0.9
0 0 0.9
0 0 0.9
0 0 0.9
0 0 0.9
0 0 0.9
0 0 0.9
0 0 0.9
0 0 0.9
0 0 0.9
0 0 0.9
0 0 0.9
0 0 0.9
0 0 0.9
0 0 0.9
0 0 0.9
0 0 0.9
0 0 0.9
0 0 0.9
0 0 0.9
0 0 0.9
0 0 0.9
0 0 0.9
0 0 0.9
0 0 0.9
0 0 0.9
0 0 0.9
0 0 0.9
0 0 0.9
0 0 0.9
0 0 0.9
0 0 0.9
0 0 0.9
0 0 0.9
0 0 0.9
0 0 0.9
0 0 0.9
0 0 0.9
0 0 0.9
0 0 0.9
0 0 0.9
0 0 0.9
0 0 0.9
0 0 0.9
0 0 0.9
0 0 0.9
0 0 0.9
0 0 0.9
0 0 0.9
0 0 0.9
0 0 0.9
0 0 0.9
0 0 0.9
0 0 0.9
0 0 0.9
0 0 0.9
0 0 0.9
0 0 0.9
0 0 0.9
0 0 0.9
0 0 0.9
0 0 0.9
0 0 0.9
0 0 0.9
0 0 0.9
0 0 0.9
0 0 0.9
0 0 0.9
0 0 0.9
0 0 0.9
0 0 0.9
0 0 0.9
0 0 0.9
0 0 0.9
0 0 0.9
0 0 0.9
0 0 0.9
0 0 0.9
0 0 0.9
0 0 0.9
0 0 0.9
0 0 0.9
0 0 0.9
0 0 0.9
0 0 0.9
0 0 0.9
0 0 0.9
0 0 0.9
0 0 0.9
0 0 0.9
0 0 0.9
0 0 0.9
0 0 0.9
0 0 0.9
0 0 0.9
0 0 0.9
0 0 0.9
0 0 0.9
0 0 0.9
0 0 0.9
0 0 0.9
0 0 0.9
0 0 0.9
0 0 0.9
0 0 0.9
0 0 0.9
0 0 0.9
0 0 0.9
0 0 0.9
0 0 0.9
0 0 0.9
0 0 0.9
0 0 0.9
0 0 0.9
0 0 0.9
0 0 0.9
0 0 0.9
0 0 0.9
0 0 0.9
0 0 0.9
0 0 0.9
0 0 0.9
0 0 0.9
0 0 0.9
0 0 0.9
0 0 0.9
0 0 0.9
0 0 0.9
0 0 0.9
0 0 0.9
0 0 0.9
0 0 0.9
0 0 0.9
0 0 0.9
0 0 0.9
0 0 0.9
0 0 0.9
0 0 0.9
0 0 0.9
0 0 0.9
0 0 0.9
0 0 0.9
0 0 0.9
0 0 0.9
0 0 0.9
0 0 0.9
0 0 0.9
0 0 0.9
0 0 0.9
0 0 0.9
0 0 0.9
0 0 0.9
0 0 0.9
0 0 0.9
0 0 0.9
0 0 0.9
0 0 0.9
0 0 0.9
0 0 0.9
0 0 0.9
0 0 0.9
0 0 0.9
0 0 0.9
0 0 0.9
0 0 0.9
0 0 0.9
0 0 0.9
0 0 0.9
0 0 0.9
0 0 0.9
0 0 0.9
0 0 0.9
0 0 0.9
0 0 0.9
0 0 0.9
0 0 0.9
0 0 0.9
0 0 0.9
0 0 0.9
0 0 0.9
0 0 0.9
0 0 0.9
0 0 0.9
0 0 0.9
0 0 0.9
0 0 0.9
0 0 0.9
0 0 0.9
0 0 0.9
0 0 0.9
0 0 0.9
0 0 0.9
0 0 0.9
0 0 0.9
0 0 0.9
0 0 0.9
0 0 0.9
0 0 0.9
0 0 0.9
0 0 0.9
0 0 0.9
0 0 0.9
0 0 0.9
0 0 0.9
0 0 0.9
0 0 0.9
0 0 0.9
0 0 0.9
0 0 0.9
0 0 0.9
0 0 0.9
0 0 0.9
0 0 0.9
0 0 0.9
0 0 0.9
0 0 0.9
0 0 0.9
0 0 0.9
0 0 0.9
0 0 0.9
0 0 0.9
0 0 0.9
0 0 0.9
0 0 0.9
0 0 0.9
0 0 0.9
0 0 0.9
0 0 0.9
0 0 0.9
0 0 0.9
0 0 0.9
0 0 0.9
0 0 0.9
0 0 0.9
0 0 0.9
0 0 0.9
0 0 0.9
0 0 0.9
0 0 0.9
0 0 0.9
0 0 0.9
0 0 0.9
0 0 0.9
0 0 0.9
0 0 0.9
0 0 0.9
0 0 0.9
0 0 0.9
0 0 0.9
0 0 0.9
0 0 0.9
0 0 0.9
0 0 0.9
0 0 0.9
0 0 0.9
0 0 0.9
0 0 0.9
0 0 0.9
0 0 0.9
0 0 0.9
0 0 0.9
0 0 0.9
0 0 0.9
0 0 0.9
0 0 0.9
0 0 0.9
0 0 0.9
0 0 0.9
0 0 0.9
0 0 0.9
0 0 0.9
0 0 0.9
0 0 0.9
0 0 0.9
0 0 0.9
0 0 0.9
0 0 0.9
0 0 0.9
0 0 0.9
0 0 0.9
0 0 0.9
0 0 0.9
0 0 0.9
0 0 0.9
0 0 0.9
0 0 0.9
0 0 0.9
0 0 0.9
0 0 0.9
0 0 0.9
0 0 0.9
0 0 0.9
0 0 0.9
0 0 0.9
0 0 0.9
0 0 0.9
0 0 0.9
0 0 0.9
0 0 0.9
0 0 0.9
0 0 0.9
0 0 0.9
0 0 0.9
0 0 0.9
0 0 0.9
0 0 0.9
0 0 0.9
0 0 0.9
0 0 0.9
0 0 0.9
0 0 0.9
0 0 0.9
0 0 0.9
0 0 0.9
0 0 0.9
0 0 0.9
0 0 0.9
0 0 0.9
0 0 0.9
0 0 0.9
0 0 0.9
0 0 0.9
0 0 0.9
0 0 0.9
0 0 0.9
0 0 0.9
0 0 0.9
0 0 0.9
0 0 0.9
0 0 0.9
0 0 0.9
0 0 0.9
0 0 0.9
0 0 0.9
0 0 0.9
0 0 0.9
0 0 0.9
0 0 0.9
0 0 0.9
0 0 0.9
0 0 0.9
0 0 0.9
0 0 0.9
0 0 0.9
0 0 0.9
0 0 0.9
0 0 0.9
0 0 0.9
0 0 0.9
0 0 0.9
0 0 0.9
0 0 0.9
0 0 0.9
0 0 0.9
0 0 0.9
0 0 0.9
0 0 0.9
0 0 0.9
0 0 0.9
0 0 0.9
0 0 0.9
0 0 0.9
0 0 0.9
0 0 0.9
0 0 0.9
0 0 0.9
0 0 0.9
0 0 0.9
0 0 0.9
0 0 0.9
0 0 0.9
0 0 0.9
0 0 0.9
0 0 0.9
0 0 0.9
0 0 0.9
0 0 0.9
0 0 0.9
0 0 0.9
0 0 0.9
0 0 0.9
0 0 0.9
0 0 0.9
0 0 0.9
0 0 0.9
0 0 0.9
0 0 0.9
0 0 0.9
0 0 0.9
0 0 0.9
0 0 0.9
0 0 0.9
0 0 0.9
0 0 0.9
0 0 0.9
0 0 0.9
0 0 0.9
0 0 0.9
0 0 0.9
0 0 0.9
0 0 0.9
0 0 0.9
0 0 0.9
0 0 0.9
0 0 0.9
0 0 0.9
0 0 0.9
0 0 0.9
0 0 0.9
0 0 0.9
0 0 0.9
0 0 0.9
0 0 0.9
0 0 0.9
0 0 0.9
0 0 0.9
0 0 0.9
0 0 0.9
0 0 0.9
0 0 0.9
0 0 0.9
0 0 0.9
0 0 0.9
0 0 0.9
0 0 0.9
0 0 0.9
0 0 0.9
0 0 0.9
0 0 0.9
0 0 0.9
0 0 0.9
3
O0 0
o54
1001
o5
o0
n-1
v0
n2
o5
o1
v1
v0
n2
o5
o1
v2
v1
n2
o5
o1
v3
v2
n2
o5
o1
v4
v3
n2
o5
o1
v5
v4
n2
o5
o1
v6
v5
n2
o5
o1
v7
v6
n2
o5
o1
v8
v7
n2
o5
o1
v9
v8
n2
o5
o1
v10
v9
n2
o5
o1
v11
v10
n2
o5
o1
v12
v11
n2
o5
o1
v13
v12
n2
o5
o1
v14
v13
n2
o5
o1
v15
v14
n2
o5
o1
v16
v15
n2
o5
o1
v17
v16
n2
o5
o1
v18
v17
n2
o5
o1
v19
v18
n2
o5
o1
v20
v19
n2
o5
o1
v21
v20
n2
o5
o1
v22
v21
n2
o5
o1
v23
v22
n2
o5
o1
v24
v23
n2
o5
o1
v25
v24
n2
o5
o1
v26
v25
n2
o5
o1
v27
v26
n2
o5
o1
v28
v27
n2
o5
o1
v29
v28
n2
o5
o1
v30
v29
n2
o5
o1
v31
v30
n2
o5
o1
v32
v31
n2
o5
o1
v33
v32
n2
o5
o1
v34
v33
n2
o5
o1
v35
v34
n2
o5
o1
v36
v35
n2
o5
o1
v37
v36
n2
o5
o1
v38
v37
n2
o5
o1
v39
v38
n2
o5
o1
v40
v39
n2
o5
o1
v41
v40
n2
o5
o1
v42
v41
n2
o5
o1
v43
v42
n2
o5
o1
v44
v43
n2
o5
o1
v45
v44
n2
o5
o1
v46
v45
n2
o5
o1
v47
v46
n2
o5
o1
v48
v47
n2
o5
o1
v49
v48
n2
o5
o1
v50
v49
n2
o5
o1
v51
v50
n2
o5
o1
v52
v51
n2
o5
o1
v53
v52
n2
o5
o1
v54
v53
n2
o5
o1
v55
v54
n2
o5
o1
v56
v55
n2
o5
o1
v57
v56
n2
o5
o1
v58
v57
n2
o5
o1
v59
v58
n2
o5
o1
v60
v59
n2
o5
o1
v61
v60
n2
o5
o1
v62
v61
n2
o5
o1
v63
v62
n2
o5
o1
v64
v63
n2
o5
o1
v65
v64
n2
o5
o1
v66
v65
n2
o5
o1
v67
v66
n2
o5
o1
v68
v67
n2
o5
o1
v69
v68
n2
o5
o1
v70
v69
n2
o5
o1
v71
v70
n2
o5
o1
v72
v71
n2
o5
o1
v73
v72
n2
o5
o1
v74
v73
n2
o5
o1
v75
v74
n2
o5
o1
v76
v75
n2
o5
o1
v77
v76
n2
o5
o1
v78
v77
n2
o5
o1
v79
v78
n2
o5
o1
v80
v79
n2
o5
o1
v81
v80
n2
o5
o1
v82
v81
n2
o5
o1
v83
v82
n2
o5
o1
v84
v83
n2
o5
o1
v85
v84
n2
o5
o1
v86
v85
n2
o5
o1
v87
v86
n2
o5
o1
v88
v87
n2
o5
o1
v89
v88
n2
o5
o1
v90
v89
n2
o5
o1
v91
v90
n2
o5
o1
v92
v91
n2
o5
o1
v93
v92
n2
o5
o1
v94
v93
n2
o5
o1
v95
v94
n2
o5
o1
v96
v95
n2
o5
o1
v97
v96
n2
o5
o1
v98
v97
n2
o5
o1
v99
v98
n2
o5
o1
v100
v99
n2
o5
o1
v101
v100
n2
o5
o1
v102
v101
n2
o5
o1
v103
v102
n2
o5
o1
v104
v103
n2
o5
o1
v105
v104
n2
o5
o1
v106
v105
n2
o5
o1
v107
v106
n2
o5
o1
v108
v107
n2
o5
o1
v109
v108
n2
o5
o1
v110
v109
n2
o5
o1
v111
v110
n2
o5
o1
v112
v111
n2
o5
o1
v113
v112
n2
o5
o1
v114
v113
n2
o5
o1
v115
v114
n2
o5
o1
v116
v115
n2
o5
o1
v117
v116
n2
o5
o1
v118
v117
n2
o5
o1
v119
v118
n2
o5
o1
v120
v119
n2
o5
o1
v121
v120
n2
o5
o1
v122
v121
n2
o5
o1
v123
v122
n2
o5
o1
v124
v123
n2
o5
o1
v125
v124
n2
o5
o1
v126
v125
n2
o5
o1
v127
v126
n2
o5
o1
v128
v127
n2
o5
o1
v129
v128
n2
o5
o1
v130
v129
n2
o5
o1
v131
v130
n2
o5
o1
v132
v131
n2
o5
o1
v133
v132
n2
o5
o1
v134
v133
n2
o5
o1
v135
v134
n2
o5
o1
v136
v135
n2
o5
o1
v137
v136
n2
o5
o1
v138
v137
n2
o5
o1
v139
v138
n2
o5
o1
v140
v139
n2
o5
o1
v141
v140
n2
o5
o1
v142
v141
n2
o5
o1
v143
v142
n2
o5
o1
v144
v143
n2
o5
o1
v145
v144
n2
o5
o1
v146
v145
n2
o5
o1
v147
v146
n2
o5
o1
v148
v147
n2
o5
o1
v149
v148
n2
o5
o1
v150
v149
n2
o5
o1
v151
v150
n2
o5
o1
v152
v151
n2
o5
o1
v153
v152
n2
o5
o1
v154
v153
n2
o5
o1
v155
v154
n2
o5
o1
v156
v155
n2
o5
o1
v157
v156
n2
o5
o1
v158
v157
n2
o5
o1
v159
v158
n2
o5
o1
v160
v159
n2
o5
o1
v161
v160
n2
o5
o1
v162
v161
n2
o5
o1
v163
v162
n2
o5
o1
v164
v163
n2
o5
o1
v165
v164
n2
o5
o1
v166
v165
n2
o5
o1
v167
v166
n2
o5
o1
v168
v167
n2
o5
o1
v169
v168
n2
o5
o1
v170
v169
n2
o5
o1
v171
v170
n2
o5
o1
v172
v171
n2
o5
o1
v173
v172
n2
o5
o1
v174
v173
n2
o5
o1
v175
v174
n2
o5
o1
v176
v175
n2
o5
o1
v177
v176
n2
o5
o1
v178
v177
n2
o5
o1
v179
v178
n2
o5
o1
v180
v179
n2
o5
o1
v181
v180
n2
o5
o1
v182
v181
n2
o5
o1
v183
v182
n2
o5
o1
v184
v183
n2
o5
o1
v185
v184
n2
o5
o1
v186
v185
n2
o5
o1
v187
v186
n2
o5
o1
v188
v187
n2
o5
o1
v189
v188
n2
o5
o1
v190
v189
n2
o5
o1
v191
v190
n2
o5
o1
v192
v191
n2
o5
o1
v193
v192
n2
o5
o1
v194
v193
n2
o5
o1
v195
v194
n2
o5
o1
v196
v195
n2
o5
o1
v197
v196
n2
o5
o1
v198
v197
n2
o5
o1
v199
v198
n2
o5
o1
v200
v199
n2
o5
o1
v201
v200
n2
o5
o1
v202
v201
n2
o5
o1
v203
v202
n2
o5
o1
v204
v203
n2
o5
o1
v205
v204
n2
o5
o1
v206
v205
n2
o5
o1
v207
v206
n2
o5
o1
v208
v207
n2
o5
o1
v209
v208
n2
o5
o1
v210
v209
n2
o5
o1
v211
v210
n2
o5
o1
v212
v211
n2
o5
o1
v213
v212
n2
o5
o1
v214
v213
n2
o5
o1
v215
v214
n2
o5
o1
v216
v215
n2
o5
o1
v217
v216
n2
o5
o1
v218
v217
n2
o5
o1
v219
v218
n2
o5
o1
v220
v219
n2
o5
o1
v221
v220
n2
o5
o1
v222
v221
n2
o5
o1
v223
v222
n2
o5
o1
v224
v223
n2
o5
o1
v225
v224
n2
o5
o1
v226
v225
n2
o5
o1
v227
v226
n2
o5
o1
v228
v227
n2
o5
o1
v229
v228
n2
o5
o1
v230
v229
n2
o5
o1
v231
v230
n2
o5
o1
v232
v231
n2
o5
o1
v233
v232
n2
o5
o1
v234
v233
n2
o5
o1
v235
v234
n2
o5
o1
v236
v235
n2
o5
o1
v237
v236
n2
o5
o1
v238
v237
n2
o5
o1
v239
v238
n2
o5
o1
v240
v239
n2
o5
o1
v241
v240
n2
o5
o1
v242
v241
n2
o5
o1
v243
v242
n2
o5
o1
v244
v243
n2
o5
o1
v245
v244
n2
o5
o1
v246
v245
n2
o5
o1
v247
v246
n2
o5
o1
v248
v247
n2
o5
o1
v249
v248
n2
o5
o1
v250
v249
n2
o5
o1
v251
v250
n2
o5
o1
v252
v251
n2
o5
o1
v253
v252
n2
o5
o1
v254
v253
n2
o5
o1
v255
v254
n2
o5
o1
v256
v255
n2
o5
o1
v257
v256
n2
o5
o1
v258
v257
n2
o5
o1
v259
v258
n2
o5
o1
v260
v259
n2
o5
o1
v261
v260
n2
o5
o1
v262
v261
n2
o5
o1
v263
v262
n2
o5
o1
v264
v263
n2
o5
o1
v265
v264
n2
o5
o1
v266
v265
n2
o5
o1
v267
v266
n2
o5
o1
v268
v267
n2
o5
o1
v269
v268
n2
o5
o1
v270
v269
n2
o5
o1
v271
v270
n2
o5
o1
v272
v271
n2
o5
o1
v273
v272
n2
o5
o1
v274
v273
n2
o5
o1
v275
v274
n2
o5
o1
v276
v275
n2
o5
o1
v277
v276
n2
o5
o1
v278
v277
n2
o5
o1
v279
v278
n2
o5
o1
v280
v279
n2
o5
o1
v281
v280
n2
o5
o1
v282
v281
n2
o5
o1
v283
v282
n2
o5
o1
v284
v283
n2
o5
o1
v285
v284
n2
o5
o1
v286
v285
n2
o5
o1
v287
v286
n2
o5
o1
v288
v287
n2
o5
o1
v289
v288
n2
o5
o1
v290
v289
n2
o5
o1
v291
v290
n2
o5
o1
v292
v291
n2
o5
o1
v293
v292
n2
o5
o1
v294
v293
n2
o5
o1
v295
v294
n2
o5
o1
v296
v295
n2
o5
o1
v297
v296
n2
o5
o1
v298
v297
n2
o5
o1
v299
v298
n2
o5
o1
v300
v299
n2
o5
o1
v301
v300
n2
o5
o1
v302
v301
n2
o5
o1
v303
v302
n2
o5
o1
v304
v303
n2
o5
o1
v305
v304
n2
o5
o1
v306
v305
n2
o5
o1
v307
v306
n2
o5
o1
v308
v307
n2
o5
o1
v309
v308
n2
o5
o1
v310
v309
n2
o5
o1
v311
v310
n2
o5
o1
v312
v311
n2
o5
o1
v313
v312
n2
o5
o1
v314
v313
n2
o5
o1
v315
v314
n2
o5
o1
v316
v315
n2
o5
o1
v317
v316
n2
o5
o1
v318
v317
n2
o5
o1
v319
v318
n2
o5
o1
v320
v319
n2
o5
o1
v321
v320
n2
o5
o1
v322
v321
n2
o5
o1
v323
v322
n2
o5
o1
v324
v323
n2
o5
o1
v325
v324
n2
o5
o1
v326
v325
n2
o5
o1
v327
v326
n2
o5
o1
v328
v327
n2
o5
o1
v329
v328
n2
o5
o1
v330
v329
n2
o5
o1
v331
v330
n2
o5
o1
v332
v331
n2
o5
o1
v333
v332
n2
o5
o1
v334
v333
n2
o5
o1
v335
v334
n2
o5
o1
v336
v335
n2
o5
o1
v337
v336
n2
o5
o1
v338
v337
n2
o5
o1
v339
v338
n2
o5
o1
v340
v339
n2
o5
o1
v341
v340
n2
o5
o1
v342
v341
n2
o5
o1
v343
v342
n2
o5
o1
v344
v343
n2
o5
o1
v345
v344
n2
o5
o1
v346
v345
n2
o5
o1
v347
v346
n2
o5
o1
v348
v347
n2
o5
o1
v349
v348
n2
o5
o1
v350
v349
n2
o5
o1
v351
v350
n2
o5
o1
v352
v351
n2
o5
o1
v353
v352
n2
o5
o1
v354
v353
n2
o5
o1
v355
v354
n2
o5
o1
v356
v355
n2
o5
o1
v357
v356
n2
o5
o1
v358
v357
n2
o5
o1
v359
v358
n2
o5
o1
v360
v359
n2
o5
o1
v361
v360
n2
o5
o1
v362
v361
n2
o5
o1
v363
v362
n2
o5
o1
v364
v363
n2
o5
o1
v365
v364
n2
o5
o1
v366
v365
n2
o5
o1
v367
v366
n2
o5
o1
v368
v367
n2
o5
o1
v369
v368
n2
o5
o1
v370
v369
n2
o5
o1
v371
v370
n2
o5
o1
v372
v371
n2
o5
o1
v373
v372
n2
o5
o1
v374
v373
n2
o5
o1
v375
v374
n2
o5
o1
v376
v375
n2
o5
o1
v377
v376
n2
o5
o1
v378
v377
n2
o5
o1
v379
v378
n2
o5
o1
v380
v379
n2
o5
o1
v381
v380
n2
o5
o1
v382
v381
n2
o5
o1
v383
v382
n2
o5
o1
v384
v383
n2
o5
o1
v385
v384
n2
o5
o1
v386
v385
n2
o5
o1
v387
v386
n2
o5
o1
v388
v387
n2
o5
o1
v389
v388
n2
o5
o1
v390
v389
n2
o5
o1
v391
v390
n2
o5
o1
v392
v391
n2
o5
o1
v393
v392
n2
o5
o1
v394
v393
n2
o5
o1
v395
v394
n2
o5
o1
v396
v395
n2
o5
o1
v397
v396
n2
o5
o1
v398
v397
n2
o5
o1
v399
v398
n2
o5
o1
v400
v399
n2
o5
o1
v401
v400
n2
o5
o1
v402
v401
n2
o5
o1
v403
v402
n2
o5
o1
v404
v403
n2
o5
o1
v405
v404
n2
o5
o1
v406
v405
n2
o5
o1
v407
v406
n2
o5
o1
v408
v407
n2
o5
o1
v409
v408
n2
o5
o1
v410
v409
n2
o5
o1
v411
v410
n2
o5
o1
v412
v411
n2
o5
o1
v413
v412
n2
o5
o1
v414
v413
n2
o5
o1
v415
v414
n2
o5
o1
v416
v415
n2
o5
o1
v417
v416
n2
o5
o1
v418
v417
n2
o5
o1
v419
v418
n2
o5
o1
v420
v419
n2
o5
o1
v421
v420
n2
o5
o1
v422
v421
n2
o5
o1
v423
v422
n2
o5
o1
v424
v423
n2
o5
o1
v425
v424
n2
o5
o1
v426
v425
n2
o5
o1
v427
v426
n2
o5
o1
v428
v427
n2
o5
o1
v429
v428
n2
o5
o1
v430
v429
n2
o5
o1
v431
v430
n2
o5
o1
v432
v431
n2
o5
o1
v433
v432
n2
o5
o1
v434
v433
n2
o5
o1
v435
v434
n2
o5
o1
v436
v435
n2
o5
o1
v437
v436
n2
o5
o1
v438
v437
n2
o5
o1
v439
v438
n2
o5
o1
v440
v439
n2
o5
o1
v441
v440
n2
o5
o1
v442
v441
n2
o5
o1
v443
v442
n2
o5
o1
v444
v443
n2
o5
o1
v445
v444
n2
o5
o1
v446
v445
n2
o5
o1
v447
v446
n2
o5
o1
v448
v447
n2
o5
o1
v449
v448
n2
o5
o1
v450
v449
n2
o5
o1
v451
v450
n2
o5
o1
v452
v451
n2
o5
o1
v453
v452
n2
o5
o1
v454
v453
n2
o5
o1
v455
v454
n2
o5
o1
v456
v455
n2
o5
o1
v457
v456
n2
o5
o1
v458
v457
n2
o5
o1
v459
v458
n2
o5
o1
v460
v459
n2
o5
o1
v461
v460
n2
o5
o1
v462
v461
n2
o5
o1
v463
v462
n2
o5
o1
v464
v463
n2
o5
o1
v465
v464
n2
o5
o1
v466
v465
n2
o5
o1
v467
v466
n2
o5
o1
v468
v467
n2
o5
o1
v469
v468
n2
o5
o1
v470
v469
n2
o5
o1
v471
v470
n2
o5
o1
v472
v471
n2
o5
o1
v473
v472
n2
o5
o1
v474
v473
n2
o5
o1
v475
v474
n2
o5
o1
v476
v475
n2
o5
o1
v477
v476
n2
o5
o1
v478
v477
n2
o5
o1
v479
v478
n2
o5
o1
v480
v479
n2
o5
o1
v481
v480
n2
o5
o1
v482
v481
n2
o5
o1
v483
v482
n2
o5
o1
v484
v483
n2
o5
o1
v485
v484
n2
o5
o1
v486
v485
n2
o5
o1
v487
v486
n2
o5
o1
v488
v487
n2
o5
o1
v489
v488
n2
o5
o1
v490
v489
n2
o5
o1
v491
v490
n2
o5
o1
v492
v491
n2
o5
o1
v493
v492
n2
o5
o1
v494
v493
n2
o5
o1
v495
v494
n2
o5
o1
v496
v495
n2
o5
o1
v497
v496
n2
o5
o1
v498
v497
n2
o5
o1
v499
v498
n2
o5
o1
v500
v499
n2
o5
o1
v501
v500
n2
o5
o1
v502
v501
n2
o5
o1
v503
v502
n2
o5
o1
v504
v503
n2
o5
o1
v505
v504
n2
o5
o1
v506
v505
n2
o5
o1
v507
v506
n2
o5
o1
v508
v507
n2
o5
o1
v509
v508
n2
o5
o1
v510
v509
n2
o5
o1
v511
v510
n2
o5
o1
v512
v511
n2
o5
o1
v513
v512
n2
o5
o1
v514
v513
n2
o5
o1
v515
v514
n2
o5
o1
v516
v515
n2
o5
o1
v517
v516
n2
o5
o1
v518
v517
n2
o5
o1
v519
v518
n2
o5
o1
v520
v519
n2
o5
o1
v521
v520
n2
o5
o1
v522
v521
n2
o5
o1
v523
v522
n2
o5
o1
v524
v523
n2
o5
o1
v525
v524
n2
o5
o1
v526
v525
n2
o5
o1
v527
v526
n2
o5
o1
v528
v527
n2
o5
o1
v529
v528
n2
o5
o1
v530
v529
n2
o5
o1
v531
v530
n2
o5
o1
v532
v531
n2
o5
o1
v533
v532
n2
o5
o1
v534
v533
n2
o5
o1
v535
v534
n2
o5
o1
v536
v535
n2
o5
o1
v537
v536
n2
o5
o1
v538
v537
n2
o5
o1
v539
v538
n2
o5
o1
v540
v539
n2
o5
o1
v541
v540
n2
o5
o1
v542
v541
n2
o5
o1
v543
v542
n2
o5
o1
v544
v543
n2
o5
o1
v545
v544
n2
o5
o1
v546
v545
n2
o5
o1
v547
v546
n2
o5
o1
v548
v547
n2
o5
o1
v549
v548
n2
o5
o1
v550
v549
n2
o5
o1
v551
v550
n2
o5
o1
v552
v551
n2
o5
o1
v553
v552
n2
o5
o1
v554
v553
n2
o5
o1
v555
v554
n2
o5
o1
v556
v555
n2
o5
o1
v557
v556
n2
o5
o1
v558
v557
n2
o5
o1
v559
v558
n2
o5
o1
v560
v559
n2
o5
o1
v561
v560
n2
o5
o1
v562
v561
n2
o5
o1
v563
v562
n2
o5
o1
v564
v563
n2
o5
o1
v565
v564
n2
o5
o1
v566
v565
n2
o5
o1
v567
v566
n2
o5
o1
v568
v567
n2
o5
o1
v569
v568
n2
o5
o1
v570
v569
n2
o5
o1
v571
v570
n2
o5
o1
v572
v571
n2
o5
o1
v573
v572
n2
o5
o1
v574
v573
n2
o5
o1
v575
v574
n2
o5
o1
v576
v575
n2
o5
o1
v577
v576
n2
o5
o1
v578
v577
n2
o5
o1
v579
v578
n2
o5
o1
v580
v579
n2
o5
o1
v581
v580
n2
o5
o1
v582
v581
n2
o5
o1
v583
v582
n2
o5
o1
v584
v583
n2
o5
o1
v585
v584
n2
o5
o1
v586
v585
n2
o5
o1
v587
v586
n2
o5
o1
v588
v587
n2
o5
o1
v589
v588
n2
o5
o1
v590
v589
n2
o5
o1
v591
v590
n2
o5
o1
v592
v591
n2
o5
o1
v593
v592
n2
o5
o1
v594
v593
n2
o5
o1
v595
v594
n2
o5
o1
v596
v595
n2
o5
o1
v597
v596
n2
o5
o1
v598
v597
n2
o5
o1
v599
v598
n2
o5
o1
v600
v599
n2
o5
o1
v601
v600
n2
o5
o1
v602
v601
n2
o5
o1
v603
v602
n2
o5
o1
v604
v603
n2
o5
o1
v605
v604
n2
o5
o1
v606
v605
n2
o5
o1
v607
v606
n2
o5
o1
v608
v607
n2
o5
o1
v609
v608
n2
o5
o1
v610
v609
n2
o5
o1
v611
v610
n2
o5
o1
v612
v611
n2
o5
o1
v613
v612
n2
o5
o1
v614
v613
n2
o5
o1
v615
v614
n2
o5
o1
v616
v615
n2
o5
o1
v617
v616
n2
o5
o1
v618
v617
n2
o5
o1
v619
v618
n2
o5
o1
v620
v619
n2
o5
o1
v621
v620
n2
o5
o1
v622
v621
n2
o5
o1
v623
v622
n2
o5
o1
v624
v623
n2
o5
o1
v625
v624
n2
o5
o1
v626
v625
n2
o5
o1
v627
v626
n2
o5
o1
v628
v627
n2
o5
o1
v629
v628
n2
o5
o1
v630
v629
n2
o5
o1
v631
v630
n2
o5
o1
v632
v631
n2
o5
o1
v633
v632
n2
o5
o1
v634
v633
n2
o5
o1
v635
v634
n2
o5
o1
v636
v635
n2
o5
o1
v637
v636
n2
o5
o1
v638
v637
n2
o5
o1
v639
v638
n2
o5
o1
v640
v639
n2
o5
o1
v641
v640
n2
o5
o1
v642
v641
n2
o5
o1
v643
v642
n2
o5
o1
v644
v643
n2
o5
o1
v645
v644
n2
o5
o1
v646
v645
n2
o5
o1
v647
v646
n2
o5
o1
v648
v647
n2
o5
o1
v649
v648
n2
o5
o1
v650
v649
n2
o5
o1
v651
v650
n2
o5
o1
v652
v651
n2
o5
o1
v653
v652
n2
o5
o1
v654
v653
n2
o5
o1
v655
v654
n2
o5
o1
v656
v655
n2
o5
o1
v657
v656
n2
o5
o1
v658
v657
n2
o5
o1
v659
v658
n2
o5
o1
v660
v659
n2
o5
o1
v661
v660
n2
o5
o1
v662
v661
n2
o5
o1
v663
v662
n2
o5
o1
v664
v663
n2
o5
o1
v665
v664
n2
o5
o1
v666
v665
n2
o5
o1
v667
v666
n2
o5
o1
v668
v667
n2
o5
o1
v669
v668
n2
o5
o1
v670
v669
n2
o5
o1
v671
v670
n2
o5
o1
v672
v671
n2
o5
o1
v673
v672
n2
o5
o1
v674
v673
n2
o5
o1
v675
v674
n2
o5
o1
v676
v675
n2
o5
o1
v677
v676
n2
o5
o1
v678
v677
n2
o5
o1
v679
v678
n2
o5
o1
v680
v679
n2
o5
o1
v681
v680
n2
o5
o1
v682
v681
n2
o5
o1
v683
v682
n2
o5
o1
v684
v683
n2
o5
o1
v685
v684
n2
o5
o1
v686
v685
n2
o5
o1
v687
v686
n2
o5
o1
v688
v687
n2
o5
o1
v689
v688
n2
o5
o1
v690
v689
n2
o5
o1
v691
v690
n2
o5
o1
v692
v691
n2
o5
o1
v693
v692
n2
o5
o1
v694
v693
n2
o5
o1
v695
v694
n2
o5
o1
v696
v695
n2
o5
o1
v697
v696
n2
o5
o1
v698
v697
n2
o5
o1
v699
v698
n2
o5
o1
v700
v699
n2
o5
o1
v701
v700
n2
o5
o1
v702
v701
n2
o5
o1
v703
v702
n2
o5
o1
v704
v703
n2
o5
o1
v705
v704
n2
o5
o1
v706
v705
n2
o5
o1
v707
v706
n2
o5
o1
v708
v707
n2
o5
o1
v709
v708
n2
o5
o1
v710
v709
n2
o5
o1
v711
v710
n2
o5
o1
v712
v711
n2
o5
o1
v713
v712
n2
o5
o1
v714
v713
n2
o5
o1
v715
v714
n2
o5
o1
v716
v715
n2
o5
o1
v717
v716
n2
o5
o1
v718
v717
n2
o5
o1
v719
v718
n2
o5
o1
v720
v719
n2
o5
o1
v721
v720
n2
o5
o1
v722
v721
n2
o5
o1
v723
v722
n2
o5
o1
v724
v723
n2
o5
o1
v725
v724
n2
o5
o1
v726
v725
n2
o5
o1
v727
v726
n2
o5
o1
v728
v727
n2
o5
o1
v729
v728
n2
o5
o1
v730
v729
n2
o5
o1
v731
v730
n2
o5
o1
v732
v731
n2
o5
o1
v733
v732
n2
o5
o1
v734
v733
n2
o5
o1
v735
v734
n2
o5
o1
v736
v735
n2
o5
o1
v737
v736
n2
o5
o1
v738
v737
n2
o5
o1
v739
v738
n2
o5
o1
v740
v739
n2
o5
o1
v741
v740
n2
o5
o1
v742
v741
n2
o5
o1
v743
v742
n2
o5
o1
v744
v743
n2
o5
o1
v745
v744
n2
o5
o1
v746
v745
n2
o5
o1
v747
v746
n2
o5
o1
v748
v747
n2
o5
o1
v749
v748
n2
o5
o1
v750
v749
n2
o5
o1
v751
v750
n2
o5
o1
v752
v751
n2
o5
o1
v753
v752
n2
o5
o1
v754
v753
n2
o5
o1
v755
v754
n2
o5
o1
v756
v755
n2
o5
o1
v757
v756
n2
o5
o1
v758
v757
n2
o5
o1
v759
v758
n2
o5
o1
v760
v759
n2
o5
o1
v761
v760
n2
o5
o1
v762
v761
n2
o5
o1
v763
v762
n2
o5
o1
v764
v763
n2
o5
o1
v765
v764
n2
o5
o1
v766
v765
n2
o5
o1
v767
v766
n2
o5
o1
v768
v767
n2
o5
o1
v769
v768
n2
o5
o1
v770
v769
n2
o5
o1
v771
v770
n2
o5
o1
v772
v771
n2
o5
o1
v773
v772
n2
o5
o1
v774
v773
n2
o5
o1
v775
v774
n2
o5
o1
v776
v775
n2
o5
o1
v777
v776
n2
o5
o1
v778
v777
n2
o5
o1
v779
v778
n2
o5
o1
v780
v779
n2
o5
o1
v781
v780
n2
o5
o1
v782
v781
n2
o5
o1
v783
v782
n2
o5
o1
v784
v783
n2
o5
o1
v785
v784
n2
o5
o1
v786
v785
n2
o5
o1
v787
v786
n2
o5
o1
v788
v787
n2
o5
o1
v789
v788
n2
o5
o1
v790
v789
n2
o5
o1
v791
v790
n2
o5
o1
v792
v791
n2
o5
o1
v793
v792
n2
o5
o1
v794
v793
n2
o5
o1
v795
v794
n2
o5
o1
v796
v795
n2
o5
o1
v797
v796
n2
o5
o1
v798
v797
n2
o5
o1
v799
v798
n2
o5
o1
v800
v799
n2
o5
o1
v801
v800
n2
o5
o1
v802
v801
n2
o5
o1
v803
v802
n2
o5
o1
v804
v803
n2
o5
o1
v805
v804
n2
o5
o1
v806
v805
n2
o5
o1
v807
v806
n2
o5
o1
v808
v807
n2
o5
o1
v809
v808
n2
o5
o1
v810
v809
n2
o5
o1
v811
v810
n2
o5
o1
v812
v811
n2
o5
o1
v813
v812
n2
o5
o1
v814
v813
n2
o5
o1
v815
v814
n2
o5
o1
v816
v815
n2
o5
o1
v817
v816
n2
o5
o1
v818
v817
n2
o5
o1
v819
v818
n2
o5
o1
v820
v819
n2
o5
o1
v821
v820
n2
o5
o1
v822
v821
n2
o5
o1
v823
v822
n2
o5
o1
v824
v823
n2
o5
o1
v825
v824
n2
o5
o1
v826
v825
n2
o5
o1
v827
v826
n2
o5
o1
v828
v827
n2
o5
o1
v829
v828
n2
o5
o1
v830
v829
n2
o5
o1
v831
v830
n2
o5
o1
v832
v831
n2
o5
o1
v833
v832
n2
o5
o1
v834
v833
n2
o5
o1
v835
v834
n2
o5
o1
v836
v835
n2
o5
o1
v837
v836
n2
o5
o1
v838
v837
n2
o5
o1
v839
v838
n2
o5
o1
v840
v839
n2
o5
o1
v841
v840
n2
o5
o1
v842
v841
n2
o5
o1
v843
v842
n2
o5
o1
v844
v843
n2
o5
o1
v845
v844
n2
o5
o1
v846
v845
n2
o5
o1
v847
v846
n2
o5
o1
v848
v847
n2
o5
o1
v849
v848
n2
o5
o1
v850
v849
n2
o5
o1
v851
v850
n2
o5
o1
v852
v851
n2
o5
o1
v853
v852
n2
o5
o1
v854
v853
n2
o5
o1
v855
v854
n2
o5
o1
v856
v855
n2
o5
o1
v857
v856
n2
o5
o1
v858
v857
n2
o5
o1
v859
v858
n2
o5
o1
v860
v859
n2
o5
o1
v861
v860
n2
o5
o1
v862
v861
n2
o5
o1
v863
v862
n2
o5
o1
v864
v863
n2
o5
o1
v865
v864
n2
o5
o1
v866
v865
n2
o5
o1
v867
v866
n2
o5
o1
v868
v867
n2
o5
o1
v869
v868
n2
o5
o1
v870
v869
n2
o5
o1
v871
v870
n2
o5
o1
v872
v871
n2
o5
o1
v873
v872
n2
o5
o1
v874
v873
n2
o5
o1
v875
v874
n2
o5
o1
v876
v875
n2
o5
o1
v877
v876
n2
o5
o1
v878
v877
n2
o5
o1
v879
v878
n2
o5
o1
v880
v879
n2
o5
o1
v881
v880
n2
o5
o1
v882
v881
n2
o5
o1
v883
v882
n2
o5
o1
v884
v883
n2
o5
o1
v885
v884
n2
o5
o1
v886
v885
n2
o5
o1
v887
v886
n2
o5
o1
v888
v887
n2
o5
o1
v889
v888
n2
o5
o1
v890
v889
n2
o5
o1
v891
v890
n2
o5
o1
v892
v891
n2
o5
o1
v893
v892
n2
o5
o1
v894
v893
n2
o5
o1
v895
v894
n2
o5
o1
v896
v895
n2
o5
o1
v897
v896
n2
o5
o1
v898
v897
n2
o5
o1
v899
v898
n2
o5
o1
v900
v899
n2
o5
o1
v901
v900
n2
o5
o1
v902
v901
n2
o5
o1
v903
v902
n2
o5
o1
v904
v903
n2
o5
o1
v905
v904
n2
o5
o1
v906
v905
n2
o5
o1
v907
v906
n2
o5
o1
v908
v907
n2
o5
o1
v909
v908
n2
o5
o1
v910
v909
n2
o5
o1
v911
v910
n2
o5
o1
v912
v911
n2
o5
o1
v913
v912
n2
o5
o1
v914
v913
n2
o5
o1
v915
v914
n2
o5
o1
v916
v915
n2
o5
o1
v917
v916
n2
o5
o1
v918
v917
n2
o5
o1
v919
v918
n2
o5
o1
v920
v919
n2
o5
o1
v921
v920
n2
o5
o1
v922
v921
n2
o5
o1
v923
v922
n2
o5
o1
v924
v923
n2
o5
o1
v925
v924
n2
o5
o1
v926
v925
n2
o5
o1
v927
v926
n2
o5
o1
v928
v927
n2
o5
o1
v929
v928
n2
o5
o1
v930
v929
n2
o5
o1
v931
v930
n2
o5
o1
v932
v931
n2
o5
o1
v933
v932
n2
o5
o1
v934
v933
n2
o5
o1
v935
v934
n2
o5
o1
v936
v935
n2
o5
o1
v937
v936
n2
o5
o1
v938
v937
n2
o5
o1
v939
v938
n2
o5
o1
v940
v939
n2
o5
o1
v941
v940
n2
o5
o1
v942
v941
n2
o5
o1
v943
v942
n2
o5
o1
v944
v943
n2
o5
o1
v945
v944
n2
o5
o1
v946
v945
n2
o5
o1
v947
v946
n2
o5
o1
v948
v947
n2
o5
o1
v949
v948
n2
o5
o1
v950
v949
n2
o5
o1
v951
v950
n2
o5
o1
v952
v951
n2
o5
o1
v953
v952
n2
o5
o1
v954
v953
n2
o5
o1
v955
v954
n2
o5
o1
v956
v955
n2
o5
o1
v957
v956
n2
o5
o1
v958
v957
n2
o5
o1
v959
v958
n2
o5
o1
v960
v959
n2
o5
o1
v961
v960
n2
o5
o1
v962
v961
n2
o5
o1
v963
v962
n2
o5
o1
v964
v963
n2
o5
o1
v965
v964
n2
o5
o1
v966
v965
n2
o5
o1
v967
v966
n2
o5
o1
v968
v967
n2
o5
o1
v969
v968
n2
o5
o1
v970
v969
n2
o5
o1
v971
v970
n2
o5
o1
v972
v971
n2
o5
o1
v973
v972
n2
o5
o1
v974
v973
n2
o5
o1
v975
v974
n2
o5
o1
v976
v975
n2
o5
o1
v977
v976
n2
o5
o1
v978
v977
n2
o5
o1
v979
v978
n2
o5
o1
v980
v979
n2
o5
o1
v981
v980
n2
o5
o1
v982
v981
n2
o5
o1
v983
v982
n2
o5
o1
v984
v983
n2
o5
o1
v985
v984
n2
o5
o1
v986
v985
n2
o5
o1
v987
v986
n2
o5
o1
v988
v987
n2
o5
o1
v989
v988
n2
o5
o1
v990
v989
n2
o5
o1
v991
v990
n2
o5
o1
v992
v991
n2
o5
o1
v993
v992
n2
o5
o1
v994
v993
n2
o5
o1
v995
v994
n2
o5
o1
v996
v995
n2
o5
o1
v997
v996
n2
o5
o1
v998
v997
n2
o5
o1
v999
v998
n2
o5
o1
n1
v999
n2
k999
0
0
0
0
0
0
0
0
0
0
0
0
0
0
0
0
0
0
0
0
0
0
0
0
0
0
0
0
0
0
0
0
0
0
0
0
0
0
0
0
0
0
0
0
0
0
0
0
0
0
0
0
0
0
0
0
0
0
0
0
0
0
0
0
0
0
0
0
0
0
0
0
0
0
0
0
0
0
0
0
0
0
0
0
0
0
0
0
0
0
0
0
0
0
0
0
0
0
0
0
0
0
0
0
0
0
0
0
0
0
0
0
0
0
0
0
0
0
0
0
0
0
0
0
0
0
0
0
0
0
0
0
0
0
0
0
0
0
0
0
0
0
0
0
0
0
0
0
0
0
0
0
0
0
0
0
0
0
0
0
0
0
0
0
0
0
0
0
0
0
0
0
0
0
0
0
0
0
0
0
0
0
0
0
0
0
0
0
0
0
0
0
0
0
0
0
0
0
0
0
0
0
0
0
0
0
0
0
0
0
0
0
0
0
0
0
0
0
0
0
0
0
0
0
0
0
0
0
0
0
0
0
0
0
0
0
0
0
0
0
0
0
0
0
0
0
0
0
0
0
0
0
0
0
0
0
0
0
0
0
0
0
0
0
0
0
0
0
0
0
0
0
0
0
0
0
0
0
0
0
0
0
0
0
0
0
0
0
0
0
0
0
0
0
0
0
0
0
0
0
0
0
0
0
0
0
0
0
0
0
0
0
0
0
0
0
0
0
0
0
0
0
0
0
0
0
0
0
0
0
0
0
0
0
0
0
0
0
0
0
0
0
0
0
0
0
0
0
0
0
0
0
0
0
0
0
0
0
0
0
0
0
0
0
0
0
0
0
0
0
0
0
0
0
0
0
0
0
0
0
0
0
0
0
0
0
0
0
0
0
0
0
0
0
0
0
0
0
0
0
0
0
0
0
0
0
0
0
0
0
0
0
0
0
0
0
0
0
0
0
0
0
0
0
0
0
0
0
0
0
0
0
0
0
0
0
0
0
0
0
0
0
0
0
0
0
0
0
0
0
0
0
0
0
0
0
0
0
0
0
0
0
0
0
0
0
0
0
0
0
0
0
0
0
0
0
0
0
0
0
0
0
0
0
0
0
0
0
0
0
0
0
0
0
0
0
0
0
0
0
0
0
0
0
0
0
0
0
0
0
0
0
0
0
0
0
0
0
0
0
0
0
0
0
0
0
0
0
0
0
0
0
0
0
0
0
0
0
0
0
0
0
0
0
0
0
0
0
0
0
0
0
0
0
0
0
0
0
0
0
0
0
0
0
0
0
0
0
0
0
0
0
0
0
0
0
0
0
0
0
0
0
0
0
0
0
0
0
0
0
0
0
0
0
0
0
0
0
0
0
0
0
0
0
0
0
0
0
0
0
0
0
0
0
0
0
0
0
0
0
0
0
0
0
0
0
0
0
0
0
0
0
0
0
0
0
0
0
0
0
0
0
0
0
0
0
0
0
0
0
0
0
0
0
0
0
0
0
0
0
0
0
0
0
0
0
0
0
0
0
0
0
0
0
0
0
0
0
0
0
0
0
0
0
0
0
0
0
0
0
0
0
0
0
0
0
0
0
0
0
0
0
0
0
0
0
0
0
0
0
0
0
0
0
0
0
0
0
0
0
0
0
0
0
0
0
0
0
0
0
0
0
0
0
0
0
0
0
0
0
0
0
0
0
0
0
0
0
0
0
0
0
0
0
0
0
0
0
0
0
0
0
0
0
0
0
0
0
0
0
0
0
0
0
0
0
0
0
0
0
0
0
0
0
0
0
0
0
0
0
0
0
0
0
0
0
0
0
0
0
0
0
0
0
0
0
0
0
0
0
0
0
0
0
0
0
0
0
0
0
0
0
0
0
0
0
0
0
0
0
0
0
0
0
0
0
0
0
0
0
0
0
0
0
0
0
0
0
0
0
0
0
0
0
0
0
0
0
0
0
0
0
0
0
0
0
0
0
0
0
0
0
0
0
0
0
0
0
0
0
0
0
0
0
0
0
0
0
0
0
0
0
0
0
0
0
0
0
0
0
0
0
0
0
0
0
0
0
0
0
0
0
0
0
0
0
0
0
0
0
0
0
0
0
0
0
0
0
0
0
0
0
0
0
0
0
0
0
0
0
0
0
0
0
0
0
0
0
0
0
0
0
0
0
0
0
0
0
0
0
0
0
0
0
0
0
0
0
0
0
0
0
0
0
0
0
0
0
0
0
0
0
0
0
0
0
0
0
0
0
0
0
0
0
0
0
0
0
0
G0 1000
0 0
1 0
2 0
3 0
4 0
5 0
6 0
7 0
8 0
9 0
10 0
11 0
12 0
13 0
14 0
15 0
16 0
17 0
18 0
19 0
20 0
21 0
22 0
23 0
24 0
25 0
26 0
27 0
28 0
29 0
30 0
31 0
32 0
33 0
34 0
35 0
36 0
37 0
38 0
39 0
40 0
41 0
42 0
43 0
44 0
45 0
46 0
47 0
48 0
49 0
50 0
51 0
52 0
53 0
54 0
55 0
56 0
57 0
58 0
59 0
60 0
61 0
62 0
63 0
64 0
65 0
66 0
67 0
68 0
69 0
70 0
71 0
72 0
73 0
74 0
75 0
76 0
77 0
78 0
79 0
80 0
81 0
82 0
83 0
84 0
85 0
86 0
87 0
88 0
89 0
90 0
91 0
92 0
93 0
94 0
95 0
96 0
97 0
98 0
99 0
100 0
101 0
102 0
103 0
104 0
105 0
106 0
107 0
108 0
109 0
110 0
111 0
112 0
113 0
114 0
115 0
116 0
117 0
118 0
119 0
120 0
121 0
122 0
123 0
124 0
125 0
126 0
127 0
128 0
129 0
130 0
131 0
132 0
133 0
134 0
135 0
136 0
137 0
138 0
139 0
140 0
141 0
142 0
143 0
144 0
145 0
146 0
147 0
148 0
149 0
150 0
151 0
152 0
153 0
154 0
155 0
156 0
157 0
158 0
159 0
160 0
161 0
162 0
163 0
164 0
165 0
166 0
167 0
168 0
169 0
170 0
171 0
172 0
173 0
174 0
175 0
176 0
177 0
178 0
179 0
180 0
181 0
182 0
183 0
184 0
185 0
186 0
187 0
188 0
189 0
190 0
191 0
192 0
193 0
194 0
195 0
196 0
197 0
198 0
199 0
200 0
201 0
202 0
203 0
204 0
205 0
206 0
207 0
208 0
209 0
210 0
211 0
212 0
213 0
214 0
215 0
216 0
217 0
218 0
219 0
220 0
221 0
222 0
223 0
224 0
225 0
226 0
227 0
228 0
229 0
230 0
231 0
232 0
233 0
234 0
235 0
236 0
237 0
238 0
239 0
240 0
241 0
242 0
243 0
244 0
245 0
246 0
247 0
248 0
249 0
250 0
251 0
252 0
253 0
254 0
255 0
256 0
257 0
258 0
259 0
260 0
261 0
262 0
263 0
264 0
265 0
266 0
267 0
268 0
269 0
270 0
271 0
272 0
273 0
274 0
275 0
276 0
277 0
278 0
279 0
280 0
281 0
282 0
283 0
284 0
285 0
286 0
287 0
288 0
289 0
290 0
291 0
292 0
293 0
294 0
295 0
296 0
297 0
298 0
299 0
300 0
301 0
302 0
303 0
304 0
305 0
306 0
307 0
308 0
309 0
310 0
311 0
312 0
313 0
314 0
315 0
316 0
317 0
318 0
319 0
320 0
321 0
322 0
323 0
324 0
325 0
326 0
327 0
328 0
329 0
330 0
331 0
332 0
333 0
334 0
335 0
336 0
337 0
338 0
339 0
340 0
341 0
342 0
343 0
344 0
345 0
346 0
347 0
348 0
349 0
350 0
351 0
352 0
353 0
354 0
355 0
356 0
357 0
358 0
359 0
360 0
361 0
362 0
363 0
364 0
365 0
366 0
367 0
368 0
369 0
370 0
371 0
372 0
373 0
374 0
375 0
376 0
377 0
378 0
379 0
380 0
381 0
382 0
383 0
384 0
385 0
386 0
387 0
388 0
389 0
390 0
391 0
392 0
393 0
394 0
395 0
396 0
397 0
398 0
399 0
400 0
401 0
402 0
403 0
404 0
405 0
406 0
407 0
408 0
409 0
410 0
411 0
412 0
413 0
414 0
415 0
416 0
417 0
418 0
419 0
420 0
421 0
422 0
423 0
424 0
425 0
426 0
427 0
428 0
429 0
430 0
431 0
432 0
433 0
434 0
435 0
436 0
437 0
438 0
439 0
440 0
441 0
442 0
443 0
444 0
445 0
446 0
447 0
448 0
449 0
450 0
451 0
452 0
453 0
454 0
455 0
456 0
457 0
458 0
459 0
460 0
461 0
462 0
463 0
464 0
465 0
466 0
467 0
468 0
469 0
470 0
471 0
472 0
473 0
474 0
475 0
476 0
477 0
478 0
479 0
480 0
481 0
482 0
483 0
484 0
485 0
486 0
487 0
488 0
489 0
490 0
491 0
492 0
493 0
494 0
495 0
496 0
497 0
498 0
499 0
500 0
501 0
502 0
503 0
504 0
505 0
506 0
507 0
508 0
509 0
510 0
511 0
512 0
513 0
514 0
515 0
516 0
517 0
518 0
519 0
520 0
521 0
522 0
523 0
524 0
525 0
526 0
527 0
528 0
529 0
530 0
531 0
532 0
533 0
534 0
535 0
536 0
537 0
538 0
539 0
540 0
541 0
542 0
543 0
544 0
545 0
546 0
547 0
548 0
549 0
550 0
551 0
552 0
553 0
554 0
555 0
556 0
557 0
558 0
559 0
560 0
561 0
562 0
563 0
564 0
565 0
566 0
567 0
568 0
569 0
570 0
571 0
572 0
573 0
574 0
575 0
576 0
577 0
578 0
579 0
580 0
581 0
582 0
583 0
584 0
585 0
586 0
587 0
588 0
589 0
590 0
591 0
592 0
593 0
594 0
595 0
596 0
597 0
598 0
599 0
600 0
601 0
602 0
603 0
604 0
605 0
606 0
607 0
608 0
609 0
610 0
611 0
612 0
613 0
614 0
615 0
616 0
617 0
618 0
619 0
620 0
621 0
622 0
623 0
624 0
625 0
626 0
627 0
628 0
629 0
630 0
631 0
632 0
633 0
634 0
635 0
636 0
637 0
638 0
639 0
640 0
641 0
642 0
643 0
644 0
645 0
646 0
647 0
648 0
649 0
650 0
651 0
652 0
653 0
654 0
655 0
656 0
657 0
658 0
659 0
660 0
661 0
662 0
663 0
664 0
665 0
666 0
667 0
668 0
669 0
670 0
671 0
672 0
673 0
674 0
675 0
676 0
677 0
678 0
679 0
680 0
681 0
682 0
683 0
684 0
685 0
686 0
687 0
688 0
689 0
690 0
691 0
692 0
693 0
694 0
695 0
696 0
697 0
698 0
699 0
700 0
701 0
702 0
703 0
704 0
705 0
706 0
707 0
708 0
709 0
710 0
711 0
712 0
713 0
714 0
715 0
716 0
717 0
718 0
719 0
720 0
721 0
722 0
723 0
724 0
725 0
726 0
727 0
728 0
729 0
730 0
731 0
732 0
733 0
734 0
735 0
736 0
737 0
738 0
739 0
740 0
741 0
742 0
743 0
744 0
745 0
746 0
747 0
748 0
749 0
750 0
751 0
752 0
753 0
754 0
755 0
756 0
757 0
758 0
759 0
760 0
761 0
762 0
763 0
764 0
765 0
766 0
767 0
768 0
769 0
770 0
771 0
772 0
773 0
774 0
775 0
776 0
777 0
778 0
779 0
780 0
781 0
782 0
783 0
784 0
785 0
786 0
787 0
788 0
789 0
790 0
791 0
792 0
793 0
794 0
795 0
796 0
797 0
798 0
799 0
800 0
801 0
802 0
803 0
804 0
805 0
806 0
807 0
808 0
809 0
810 0
811 0
812 0
813 0
814 0
815 0
816 0
817 0
818 0
819 0
820 0
821 0
822 0
823 0
824 0
825 0
826 0
827 0
828 0
829 0
830 0
831 0
832 0
833 0
834 0
835 0
836 0
837 0
838 0
839 0
840 0
841 0
842 0
843 0
844 0
845 0
846 0
847 0
848 0
849 0
850 0
851 0
852 0
853 0
854 0
855 0
856 0
857 0
858 0
859 0
860 0
861 0
862 0
863 0
864 0
865 0
866 0
867 0
868 0
869 0
870 0
871 0
872 0
873 0
874 0
875 0
876 0
877 0
878 0
879 0
880 0
881 0
882 0
883 0
884 0
885 0
886 0
887 0
888 0
889 0
890 0
891 0
892 0
893 0
894 0
895 0
896 0
897 0
898 0
899 0
900 0
901 0
902 0
903 0
904 0
905 0
906 0
907 0
908 0
909 0
910 0
911 0
912 0
913 0
914 0
915 0
916 0
917 0
918 0
919 0
920 0
921 0
922 0
923 0
924 0
925 0
926 0
927 0
928 0
929 0
930 0
931 0
932 0
933 0
934 0
935 0
936 0
937 0
938 0
939 0
940 0
941 0
942 0
943 0
944 0
945 0
946 0
947 0
948 0
949 0
950 0
951 0
952 0
953 0
954 0
955 0
956 0
957 0
958 0
959 0
960 0
961 0
962 0
963 0
964 0
965 0
966 0
967 0
968 0
969 0
970 0
971 0
972 0
973 0
974 0
975 0
976 0
977 0
978 0
979 0
980 0
981 0
982 0
983 0
984 0
985 0
986 0
987 0
988 0
989 0
990 0
991 0
992 0
993 0
994 0
995 0
996 0
997 0
998 0
999 0
